NAME /Users/henri/Research/solvers/instances/idol-instances/robust/collection/cbp_Subramanyam_et_al_2020/CapBud_N5_5/models/uncertain_technology_matrix/
ROWS
 N  OBJ
 L  capacity
 L  c_115
 L  c_116
 L  c_117
 L  c_118
 L  c_119
COLUMNS
    MARKER    'MARKER'                 'INTORG'
    x_0        OBJ        -4.5613
    x_0        c_115      1
    x_0        capacity   0.91226
    x_1        OBJ        -4.83409
    x_1        c_116      1
    x_1        capacity   0.966817
    x_2        OBJ        -7.88739
    x_2        c_117      1
    x_2        capacity   1.57748
    x_3        OBJ        -2.29442
    x_3        c_118      1
    x_3        capacity   0.458884
    x_4        OBJ        -8.80298
    x_4        c_119      1
    x_4        capacity   1.7606
    y_0        OBJ        -3.64904
    y_0        c_115      1
    y_0        capacity   0.91226
    y_1        OBJ        -3.86727
    y_1        c_116      1
    y_1        capacity   0.966817
    y_2        OBJ        -6.30992
    y_2        c_117      1
    y_2        capacity   1.57748
    y_3        OBJ        -1.83553
    y_3        c_118      1
    y_3        capacity   0.458884
    y_4        OBJ        -7.04238
    y_4        c_119      1
    y_4        capacity   1.7606
    MARKER    'MARKER'                 'INTEND'
RHS
    RHS       capacity   14.1901
    RHS       c_115      1
    RHS       c_116      1
    RHS       c_117      1
    RHS       c_118      1
    RHS       c_119      1
BOUNDS
 LI BND       x_0        0
 UI BND       x_0        1
 LI BND       x_1        0
 UI BND       x_1        1
 LI BND       x_2        0
 UI BND       x_2        1
 LI BND       x_3        0
 UI BND       x_3        1
 LI BND       x_4        0
 UI BND       x_4        1
 LI BND       y_0        0
 UI BND       y_0        1
 LI BND       y_1        0
 UI BND       y_1        1
 LI BND       y_2        0
 UI BND       y_2        1
 LI BND       y_3        0
 UI BND       y_3        1
 LI BND       y_4        0
 UI BND       y_4        1
ENDATA
